Version identifier: 22.1.0.0 | 2022-03-09 | 1a383f8ce
CPXPARAM_Read_DataCheck                          1
Tried aggregator 3 times.
MIP Presolve eliminated 230 rows and 113 columns.
MIP Presolve modified 8 coefficients.
Aggregator did 128 substitutions.
Reduced MIP has 72 rows, 121 columns, and 305 nonzeros.
Reduced MIP has 117 binaries, 4 generals, 0 SOSs, and 0 indicators.
Presolve time = 0.00 sec. (0.95 ticks)
Found incumbent of value 8.000000 after 0.00 sec. (1.43 ticks)
Probing fixed 6 vars, tightened 0 bounds.
Probing time = 0.00 sec. (0.15 ticks)
Tried aggregator 2 times.
Detecting symmetries...
MIP Presolve eliminated 7 rows and 7 columns.
Aggregator did 2 substitutions.
Reduced MIP has 63 rows, 112 columns, and 272 nonzeros.
Reduced MIP has 108 binaries, 4 generals, 0 SOSs, and 0 indicators.
Presolve time = 0.00 sec. (0.29 ticks)
Probing fixed 1 vars, tightened 0 bounds.
Probing time = 0.00 sec. (0.13 ticks)
Clique table members: 316.
MIP emphasis: balance optimality and feasibility.
MIP search method: dynamic search.
Parallel mode: deterministic, using up to 8 threads.
Root relaxation solution time = 0.00 sec. (0.30 ticks)

        Nodes                                         Cuts/
   Node  Left     Objective  IInf  Best Integer    Best Bound    ItCnt     Gap

*     0+    0                            8.0000        0.0000           100.00%
      0     0        4.4500    47        8.0000        4.4500       56   44.37%
      0     0        7.0000    34        8.0000      Cuts: 36       94   12.50%
*     0+    0                            7.0000        7.0000             0.00%
      0     0        cutoff              7.0000        7.0000       94    0.00%
Elapsed time = 0.02 sec. (4.76 ticks, tree = 0.01 MB, solutions = 2)

Clique cuts applied:  3
Implied bound cuts applied:  1
Zero-half cuts applied:  7
Lift and project cuts applied:  1
Gomory fractional cuts applied:  2

Root node processing (before b&c):
  Real time             =    0.02 sec. (4.77 ticks)
Parallel b&c, 8 threads:
  Real time             =    0.00 sec. (0.00 ticks)
  Sync time (average)   =    0.00 sec.
  Wait time (average)   =    0.00 sec.
                          ------------
Total (root+branch&cut) =    0.02 sec. (4.77 ticks)
